NAME          ClpDefau
ROWS
 N  OBJROW
 L  R_92_0
 L  R_92_1
 L  R_92_2
 L  R_92_3
 L  R_92_4
 L  R_92_5
 L  R_92_6
 L  R_92_7
COLUMNS
    x_0       OBJROW     -1.           R_92_0    1.          
    x_0       R_92_1    3.             R_92_3    9.          
    x_0       R_92_5    8.             R_92_6    1.          
    x_1       OBJROW     -2.           R_92_0    6.          
    x_1       R_92_2    9.             R_92_3    3.          
    x_1       R_92_4    1.             R_92_5    3.          
    x_1       R_92_6    9.             R_92_7    9.          
    x_2       OBJROW     -2.           R_92_0    3.          
    x_2       R_92_2    7.             R_92_3    6.          
    x_2       R_92_4    6.             R_92_5    8.          
    x_2       R_92_6    7.             R_92_7    8.          
    x_3       OBJROW     -6.           R_92_0    4.          
    x_3       R_92_1    8.             R_92_2    6.          
    x_3       R_92_3    8.             R_92_5    10.         
    x_3       R_92_6    9.             R_92_7    8.          
    x_4       OBJROW     -3.           R_92_0    6.          
    x_4       R_92_4    8.             R_92_5    9.          
    x_4       R_92_6    9.             R_92_7    10.         
    x_5       OBJROW     -5.           R_92_0    4.          
    x_5       R_92_1    6.             R_92_3    2.          
    x_5       R_92_4    6.             R_92_5    4.          
    x_5       R_92_7    10.         
    x_6       OBJROW     -5.           R_92_0    5.          
    x_6       R_92_1    2.             R_92_2    3.          
    x_6       R_92_4    4.             R_92_6    1.          
    x_6       R_92_7    6.          
    x_7       OBJROW     -10.          R_92_0    1.          
    x_7       R_92_1    2.             R_92_2    1.          
    x_7       R_92_3    3.             R_92_5    3.          
    x_7       R_92_6    1.             R_92_7    1.          
RHS
    RHS       R_92_0    35.            R_92_1    34.         
    RHS       R_92_2    32.            R_92_3    32.         
    RHS       R_92_4    37.            R_92_5    41.         
    RHS       R_92_6    42.            R_92_7    33.         
BOUNDS
 UI BOUND     x_0       10.         
 UI BOUND     x_1       10.         
 UI BOUND     x_2       10.         
 UI BOUND     x_3       10.         
 UI BOUND     x_4       10.         
 UI BOUND     x_5       10.         
 UI BOUND     x_6       10.         
 UI BOUND     x_7       10.         
ENDATA
